(set-info :smt-lib-version 2.6)
(set-logic UF)
(set-info :source |Benchmarks from the paper: "Extending Sledgehammer with SMT Solvers" by Jasmin Blanchette, Sascha Bohme, and Lawrence C. Paulson, CADE 2011.  Translated to SMT2 by Andrew Reynolds and Morgan Deters.|)
(set-info :category "industrial")
(set-info :status sat)
(declare-sort S1 0)
(declare-sort S2 0)
(declare-sort S3 0)
(declare-sort S4 0)
(declare-sort S5 0)
(declare-sort S6 0)
(declare-sort S7 0)
(declare-sort S8 0)
(declare-sort S9 0)
(declare-sort S10 0)
(declare-sort S11 0)
(declare-sort S12 0)
(declare-sort S13 0)
(declare-sort S14 0)
(declare-sort S15 0)
(declare-sort S16 0)
(declare-sort S17 0)
(declare-sort S18 0)
(declare-sort S19 0)
(declare-sort S20 0)
(declare-sort S21 0)
(declare-sort S22 0)
(declare-sort S23 0)
(declare-sort S24 0)
(declare-sort S25 0)
(declare-sort S26 0)
(declare-sort S27 0)
(declare-sort S28 0)
(declare-sort S29 0)
(declare-sort S30 0)
(declare-sort S31 0)
(declare-sort S32 0)
(declare-sort S33 0)
(declare-sort S34 0)
(declare-sort S35 0)
(declare-sort S36 0)
(declare-fun f1 () S1)
(declare-fun f2 () S1)
(declare-fun f3 (S3 S2) S4)
(declare-fun f4 () S3)
(declare-fun f5 (S5 S6) S4)
(declare-fun f6 (S7 S8) S5)
(declare-fun f7 (S9 S6) S7)
(declare-fun f8 () S9)
(declare-fun f9 (S10 S2) S6)
(declare-fun f10 () S10)
(declare-fun f11 (S11 S12) S8)
(declare-fun f12 () S11)
(declare-fun f13 (S2) S12)
(declare-fun f14 () S10)
(declare-fun f15 () S3)
(declare-fun f16 () S6)
(declare-fun f17 (S13 S8) S6)
(declare-fun f18 () S13)
(declare-fun f19 () S3)
(declare-fun f20 (S14 S2) S8)
(declare-fun f21 () S14)
(declare-fun f22 (S16 S15) S1)
(declare-fun f23 (S6 S15) S16)
(declare-fun f24 (S17 S10) S3)
(declare-fun f25 (S18 S10) S17)
(declare-fun f26 () S18)
(declare-fun f27 () S18)
(declare-fun f28 (S19 S20) S1)
(declare-fun f29 (S21 S20) S19)
(declare-fun f30 () S21)
(declare-fun f31 (S22 S20) S20)
(declare-fun f32 (S23 S20) S22)
(declare-fun f33 () S23)
(declare-fun f34 () S20)
(declare-fun f35 (S24 S25) S20)
(declare-fun f36 (S26 S3) S24)
(declare-fun f37 () S26)
(declare-fun f38 () S25)
(declare-fun f39 () S21)
(declare-fun f40 (S27 S4) S19)
(declare-fun f41 () S27)
(declare-fun f42 (S28 S25) S1)
(declare-fun f43 (S29 S2) S28)
(declare-fun f44 () S29)
(declare-fun f45 (S30 S25) S25)
(declare-fun f46 (S31 S25) S30)
(declare-fun f47 () S31)
(declare-fun f48 (S20 S4) S1)
(declare-fun f49 (S25 S2) S1)
(declare-fun f50 (S32 S4) S2)
(declare-fun f51 (S33 S20) S25)
(declare-fun f52 (S34 S32) S33)
(declare-fun f53 () S34)
(declare-fun f54 (S35 S1) S1)
(declare-fun f55 (S36 S1) S35)
(declare-fun f56 () S36)
(assert (not (= f1 f2)))
(assert (forall ((?v0 S2)) (= (f3 f4 ?v0) (f5 (f6 (f7 f8 (f9 f10 ?v0)) (f11 f12 (f13 ?v0))) (f9 f14 ?v0)))))
(assert (forall ((?v0 S2)) (let ((?v_0 (f11 f12 (f13 ?v0)))) (= (f3 f15 ?v0) (f5 (f6 (f7 f8 f16) ?v_0) (f17 f18 ?v_0))))))
(assert (forall ((?v0 S2)) (let ((?v_0 (f20 f21 ?v0))) (= (f3 f19 ?v0) (f5 (f6 (f7 f8 f16) ?v_0) (f17 f18 ?v_0))))))
(assert (forall ((?v0 S15) (?v1 S15)) (= (= (f22 (f23 f16 ?v0) ?v1) f1) (= ?v0 ?v1))))
(assert (forall ((?v0 S10) (?v1 S10) (?v2 S2)) (= (f3 (f24 (f25 f26 ?v0) ?v1) ?v2) (f5 (f6 (f7 f8 (f9 ?v0 ?v2)) (f11 f12 (f13 ?v2))) (f9 ?v1 ?v2)))))
(assert (forall ((?v0 S10) (?v1 S10) (?v2 S2)) (= (f3 (f24 (f25 f27 ?v0) ?v1) ?v2) (f5 (f6 (f7 f8 (f9 ?v0 ?v2)) (f20 f21 ?v2)) (f9 ?v1 ?v2)))))
(assert (not (= (f28 (f29 f30 (f31 (f32 f33 f34) (f35 (f36 f37 f19) f38))) (f35 (f36 f37 f4) f38)) f1)))
(assert (= (f28 (f29 f30 (f31 (f32 f33 f34) (f35 (f36 f37 f19) f38))) (f35 (f36 f37 f15) f38)) f1))
(assert (forall ((?v0 S6) (?v1 S8) (?v2 S6) (?v3 S6) (?v4 S8) (?v5 S6)) (= (= (f5 (f6 (f7 f8 ?v0) ?v1) ?v2) (f5 (f6 (f7 f8 ?v3) ?v4) ?v5)) (and (= ?v0 ?v3) (and (= ?v1 ?v4) (= ?v2 ?v5))))))
(assert (forall ((?v0 S20) (?v1 S20) (?v2 S20)) (let ((?v_0 (f29 f30 ?v2))) (=> (= (f28 (f29 f30 ?v0) ?v1) f1) (=> (= (f28 ?v_0 ?v0) f1) (= (f28 ?v_0 ?v1) f1))))))
(assert (forall ((?v0 S20) (?v1 S10) (?v2 S10) (?v3 S25)) (let ((?v_0 (f35 (f36 f37 (f24 (f25 f27 ?v1) ?v2)) ?v3))) (=> (= (f28 (f29 f30 (f31 (f32 f33 ?v0) ?v_0)) (f35 (f36 f37 (f24 (f25 f26 ?v1) ?v2)) ?v3)) f1) (= (f28 (f29 f30 ?v0) ?v_0) f1)))))
(assert (forall ((?v0 S2) (?v1 S15) (?v2 S15)) (=> (= (f22 (f23 (f17 f18 (f20 f21 ?v0)) ?v1) ?v2) f1) (=> (=> (= (f22 (f23 (f17 f18 (f11 f12 (f13 ?v0))) ?v1) ?v2) f1) false) false))))
(assert (forall ((?v0 S2) (?v1 S15) (?v2 S15)) (=> (= (f22 (f23 (f17 f18 (f11 f12 (f13 ?v0))) ?v1) ?v2) f1) (= (f22 (f23 (f17 f18 (f20 f21 ?v0)) ?v1) ?v2) f1))))
(assert (forall ((?v0 S20) (?v1 S10) (?v2 S10) (?v3 S25)) (let ((?v_0 (f35 (f36 f37 (f24 (f25 f27 ?v1) ?v2)) ?v3))) (=> (= (f28 (f29 f39 (f31 (f32 f33 ?v0) ?v_0)) (f35 (f36 f37 (f24 (f25 f26 ?v1) ?v2)) ?v3)) f1) (= (f28 (f29 f39 ?v0) ?v_0) f1)))))
(assert (forall ((?v0 S4) (?v1 S20) (?v2 S20)) (let ((?v_0 (f40 f41 ?v0))) (=> (= (f28 ?v_0 (f31 (f32 f33 ?v1) ?v2)) f1) (=> (=> (= (f28 ?v_0 ?v1) f1) false) (=> (=> (= (f28 ?v_0 ?v2) f1) false) false))))))
(assert (forall ((?v0 S2) (?v1 S25) (?v2 S25)) (let ((?v_0 (f43 f44 ?v0))) (=> (= (f42 ?v_0 (f45 (f46 f47 ?v1) ?v2)) f1) (=> (=> (= (f42 ?v_0 ?v1) f1) false) (=> (=> (= (f42 ?v_0 ?v2) f1) false) false))))))
(assert (forall ((?v0 S20) (?v1 S20) (?v2 S4)) (=> (= (f48 (f31 (f32 f33 ?v0) ?v1) ?v2) f1) (=> (=> (= (f48 ?v0 ?v2) f1) false) (=> (=> (= (f48 ?v1 ?v2) f1) false) false)))))
(assert (forall ((?v0 S25) (?v1 S25) (?v2 S2)) (=> (= (f49 (f45 (f46 f47 ?v0) ?v1) ?v2) f1) (=> (=> (= (f49 ?v0 ?v2) f1) false) (=> (=> (= (f49 ?v1 ?v2) f1) false) false)))))
(assert (forall ((?v0 S20) (?v1 S4) (?v2 S20)) (=> (=> (not (= (f48 ?v0 ?v1) f1)) (= (f48 ?v2 ?v1) f1)) (= (f48 (f31 (f32 f33 ?v2) ?v0) ?v1) f1))))
(assert (forall ((?v0 S25) (?v1 S2) (?v2 S25)) (=> (=> (not (= (f49 ?v0 ?v1) f1)) (= (f49 ?v2 ?v1) f1)) (= (f49 (f45 (f46 f47 ?v2) ?v0) ?v1) f1))))
(assert (forall ((?v0 S4) (?v1 S20) (?v2 S20)) (let ((?v_0 (f40 f41 ?v0))) (=> (=> (not (= (f28 ?v_0 ?v1) f1)) (= (f28 ?v_0 ?v2) f1)) (= (f28 ?v_0 (f31 (f32 f33 ?v2) ?v1)) f1)))))
(assert (forall ((?v0 S2) (?v1 S25) (?v2 S25)) (let ((?v_0 (f43 f44 ?v0))) (=> (=> (not (= (f42 ?v_0 ?v1) f1)) (= (f42 ?v_0 ?v2) f1)) (= (f42 ?v_0 (f45 (f46 f47 ?v2) ?v1)) f1)))))
(assert (forall ((?v0 S4) (?v1 S3) (?v2 S2) (?v3 S25)) (=> (= ?v0 (f3 ?v1 ?v2)) (=> (= (f42 (f43 f44 ?v2) ?v3) f1) (= (f28 (f40 f41 ?v0) (f35 (f36 f37 ?v1) ?v3)) f1)))))
(assert (forall ((?v0 S2) (?v1 S32) (?v2 S4) (?v3 S20)) (=> (= ?v0 (f50 ?v1 ?v2)) (=> (= (f28 (f40 f41 ?v2) ?v3) f1) (= (f42 (f43 f44 ?v0) (f51 (f52 f53 ?v1) ?v3)) f1)))))
(assert (forall ((?v0 S3) (?v1 S25) (?v2 S25)) (let ((?v_0 (f36 f37 ?v0))) (= (f35 ?v_0 (f45 (f46 f47 ?v1) ?v2)) (f31 (f32 f33 (f35 ?v_0 ?v1)) (f35 ?v_0 ?v2))))))
(assert (forall ((?v0 S32) (?v1 S20) (?v2 S20)) (let ((?v_0 (f52 f53 ?v0))) (= (f51 ?v_0 (f31 (f32 f33 ?v1) ?v2)) (f45 (f46 f47 (f51 ?v_0 ?v1)) (f51 ?v_0 ?v2))))))
(assert (forall ((?v0 S20) (?v1 S20) (?v2 S4)) (= (= (f48 (f31 (f32 f33 ?v0) ?v1) ?v2) f1) (= (f54 (f55 f56 (f48 ?v0 ?v2)) (f48 ?v1 ?v2)) f1))))
(assert (forall ((?v0 S25) (?v1 S25) (?v2 S2)) (= (= (f49 (f45 (f46 f47 ?v0) ?v1) ?v2) f1) (= (f54 (f55 f56 (f49 ?v0 ?v2)) (f49 ?v1 ?v2)) f1))))
(assert (forall ((?v0 S20) (?v1 S20)) (=> (= (f28 (f29 f30 ?v0) ?v1) f1) (= (f28 (f29 f39 ?v0) ?v1) f1))))
(assert (forall ((?v0 S20) (?v1 S20) (?v2 S20)) (let ((?v_0 (f32 f33 ?v0))) (= (f31 (f32 f33 (f31 ?v_0 ?v1)) ?v2) (f31 ?v_0 (f31 (f32 f33 ?v1) ?v2))))))
(assert (forall ((?v0 S25) (?v1 S25) (?v2 S25)) (let ((?v_0 (f46 f47 ?v0))) (= (f45 (f46 f47 (f45 ?v_0 ?v1)) ?v2) (f45 ?v_0 (f45 (f46 f47 ?v1) ?v2))))))
(assert (forall ((?v0 S1) (?v1 S1) (?v2 S1)) (let ((?v_0 (f55 f56 ?v0))) (= (= (f54 (f55 f56 (f54 ?v_0 ?v1)) ?v2) f1) (= (f54 ?v_0 (f54 (f55 f56 ?v1) ?v2)) f1)))))
(assert (forall ((?v0 S20) (?v1 S20) (?v2 S20)) (let ((?v_0 (f32 f33 ?v0))) (= (f31 (f32 f33 (f31 ?v_0 ?v1)) ?v2) (f31 ?v_0 (f31 (f32 f33 ?v1) ?v2))))))
(assert (forall ((?v0 S25) (?v1 S25) (?v2 S25)) (let ((?v_0 (f46 f47 ?v0))) (= (f45 (f46 f47 (f45 ?v_0 ?v1)) ?v2) (f45 ?v_0 (f45 (f46 f47 ?v1) ?v2))))))
(assert (forall ((?v0 S1) (?v1 S1) (?v2 S1)) (let ((?v_0 (f55 f56 ?v0))) (= (= (f54 (f55 f56 (f54 ?v_0 ?v1)) ?v2) f1) (= (f54 ?v_0 (f54 (f55 f56 ?v1) ?v2)) f1)))))
(assert (forall ((?v0 S20) (?v1 S20) (?v2 S20)) (let ((?v_0 (f32 f33 ?v0))) (= (f31 (f32 f33 (f31 ?v_0 ?v1)) ?v2) (f31 ?v_0 (f31 (f32 f33 ?v1) ?v2))))))
(assert (forall ((?v0 S25) (?v1 S25) (?v2 S25)) (let ((?v_0 (f46 f47 ?v0))) (= (f45 (f46 f47 (f45 ?v_0 ?v1)) ?v2) (f45 ?v_0 (f45 (f46 f47 ?v1) ?v2))))))
(assert (forall ((?v0 S1) (?v1 S1) (?v2 S1)) (let ((?v_0 (f55 f56 ?v0))) (= (= (f54 (f55 f56 (f54 ?v_0 ?v1)) ?v2) f1) (= (f54 ?v_0 (f54 (f55 f56 ?v1) ?v2)) f1)))))
(assert (forall ((?v0 S20) (?v1 S20) (?v2 S20)) (let ((?v_1 (f32 f33 ?v0)) (?v_0 (f32 f33 ?v1))) (= (f31 ?v_1 (f31 ?v_0 ?v2)) (f31 ?v_0 (f31 ?v_1 ?v2))))))
(assert (forall ((?v0 S25) (?v1 S25) (?v2 S25)) (let ((?v_1 (f46 f47 ?v0)) (?v_0 (f46 f47 ?v1))) (= (f45 ?v_1 (f45 ?v_0 ?v2)) (f45 ?v_0 (f45 ?v_1 ?v2))))))
(assert (forall ((?v0 S1) (?v1 S1) (?v2 S1)) (let ((?v_1 (f55 f56 ?v0)) (?v_0 (f55 f56 ?v1))) (= (= (f54 ?v_1 (f54 ?v_0 ?v2)) f1) (= (f54 ?v_0 (f54 ?v_1 ?v2)) f1)))))
(assert (forall ((?v0 S20) (?v1 S20) (?v2 S20)) (let ((?v_1 (f32 f33 ?v0)) (?v_0 (f32 f33 ?v1))) (= (f31 ?v_1 (f31 ?v_0 ?v2)) (f31 ?v_0 (f31 ?v_1 ?v2))))))
(assert (forall ((?v0 S25) (?v1 S25) (?v2 S25)) (let ((?v_1 (f46 f47 ?v0)) (?v_0 (f46 f47 ?v1))) (= (f45 ?v_1 (f45 ?v_0 ?v2)) (f45 ?v_0 (f45 ?v_1 ?v2))))))
(assert (forall ((?v0 S1) (?v1 S1) (?v2 S1)) (let ((?v_1 (f55 f56 ?v0)) (?v_0 (f55 f56 ?v1))) (= (= (f54 ?v_1 (f54 ?v_0 ?v2)) f1) (= (f54 ?v_0 (f54 ?v_1 ?v2)) f1)))))
(assert (forall ((?v0 S20) (?v1 S20) (?v2 S20)) (let ((?v_1 (f32 f33 ?v0)) (?v_0 (f32 f33 ?v1))) (= (f31 ?v_1 (f31 ?v_0 ?v2)) (f31 ?v_0 (f31 ?v_1 ?v2))))))
(assert (forall ((?v0 S25) (?v1 S25) (?v2 S25)) (let ((?v_1 (f46 f47 ?v0)) (?v_0 (f46 f47 ?v1))) (= (f45 ?v_1 (f45 ?v_0 ?v2)) (f45 ?v_0 (f45 ?v_1 ?v2))))))
(assert (forall ((?v0 S1) (?v1 S1) (?v2 S1)) (let ((?v_1 (f55 f56 ?v0)) (?v_0 (f55 f56 ?v1))) (= (= (f54 ?v_1 (f54 ?v_0 ?v2)) f1) (= (f54 ?v_0 (f54 ?v_1 ?v2)) f1)))))
(assert (forall ((?v0 S20) (?v1 S20)) (let ((?v_0 (f32 f33 ?v0))) (let ((?v_1 (f31 ?v_0 ?v1))) (= (f31 ?v_0 ?v_1) ?v_1)))))
(assert (forall ((?v0 S25) (?v1 S25)) (let ((?v_0 (f46 f47 ?v0))) (let ((?v_1 (f45 ?v_0 ?v1))) (= (f45 ?v_0 ?v_1) ?v_1)))))
(assert (forall ((?v0 S1) (?v1 S1)) (let ((?v_0 (f55 f56 ?v0))) (let ((?v_1 (f54 ?v_0 ?v1))) (= (= (f54 ?v_0 ?v_1) f1) (= ?v_1 f1))))))
(assert (forall ((?v0 S20) (?v1 S20)) (let ((?v_0 (f32 f33 ?v0))) (let ((?v_1 (f31 ?v_0 ?v1))) (= (f31 ?v_0 ?v_1) ?v_1)))))
(assert (forall ((?v0 S25) (?v1 S25)) (let ((?v_0 (f46 f47 ?v0))) (let ((?v_1 (f45 ?v_0 ?v1))) (= (f45 ?v_0 ?v_1) ?v_1)))))
(assert (forall ((?v0 S1) (?v1 S1)) (let ((?v_0 (f55 f56 ?v0))) (let ((?v_1 (f54 ?v_0 ?v1))) (= (= (f54 ?v_0 ?v_1) f1) (= ?v_1 f1))))))
(assert (forall ((?v0 S20) (?v1 S20)) (let ((?v_0 (f32 f33 ?v0))) (let ((?v_1 (f31 ?v_0 ?v1))) (= (f31 ?v_0 ?v_1) ?v_1)))))
(assert (forall ((?v0 S25) (?v1 S25)) (let ((?v_0 (f46 f47 ?v0))) (let ((?v_1 (f45 ?v_0 ?v1))) (= (f45 ?v_0 ?v_1) ?v_1)))))
(assert (forall ((?v0 S1) (?v1 S1)) (let ((?v_0 (f55 f56 ?v0))) (let ((?v_1 (f54 ?v_0 ?v1))) (= (= (f54 ?v_0 ?v_1) f1) (= ?v_1 f1))))))
(assert (forall ((?v0 S20) (?v1 S20)) (= (f31 (f32 f33 ?v0) ?v1) (f31 (f32 f33 ?v1) ?v0))))
(assert (forall ((?v0 S25) (?v1 S25)) (= (f45 (f46 f47 ?v0) ?v1) (f45 (f46 f47 ?v1) ?v0))))
(assert (forall ((?v0 S1) (?v1 S1)) (= (= (f54 (f55 f56 ?v0) ?v1) f1) (= (f54 (f55 f56 ?v1) ?v0) f1))))
(assert (forall ((?v0 S20) (?v1 S20)) (= (f31 (f32 f33 ?v0) ?v1) (f31 (f32 f33 ?v1) ?v0))))
(assert (forall ((?v0 S25) (?v1 S25)) (= (f45 (f46 f47 ?v0) ?v1) (f45 (f46 f47 ?v1) ?v0))))
(assert (forall ((?v0 S1) (?v1 S1)) (= (= (f54 (f55 f56 ?v0) ?v1) f1) (= (f54 (f55 f56 ?v1) ?v0) f1))))
(assert (forall ((?v0 S20) (?v1 S20)) (= (f31 (f32 f33 ?v0) ?v1) (f31 (f32 f33 ?v1) ?v0))))
(assert (forall ((?v0 S25) (?v1 S25)) (= (f45 (f46 f47 ?v0) ?v1) (f45 (f46 f47 ?v1) ?v0))))
(assert (forall ((?v0 S1) (?v1 S1)) (= (= (f54 (f55 f56 ?v0) ?v1) f1) (= (f54 (f55 f56 ?v1) ?v0) f1))))
(assert (forall ((?v0 S20)) (= (f31 (f32 f33 ?v0) ?v0) ?v0)))
(assert (forall ((?v0 S25)) (= (f45 (f46 f47 ?v0) ?v0) ?v0)))
(assert (forall ((?v0 S1)) (= (= (f54 (f55 f56 ?v0) ?v0) f1) (= ?v0 f1))))
(assert (forall ((?v0 S20)) (= (f31 (f32 f33 ?v0) ?v0) ?v0)))
(assert (forall ((?v0 S25)) (= (f45 (f46 f47 ?v0) ?v0) ?v0)))
(assert (forall ((?v0 S1)) (= (= (f54 (f55 f56 ?v0) ?v0) f1) (= ?v0 f1))))
(assert (forall ((?v0 S2) (?v1 S25) (?v2 S4) (?v3 S3)) (=> (= (f42 (f43 f44 ?v0) ?v1) f1) (=> (= ?v2 (f3 ?v3 ?v0)) (= (f28 (f40 f41 ?v2) (f35 (f36 f37 ?v3) ?v1)) f1)))))
(assert (forall ((?v0 S4) (?v1 S20) (?v2 S2) (?v3 S32)) (=> (= (f28 (f40 f41 ?v0) ?v1) f1) (=> (= ?v2 (f50 ?v3 ?v0)) (= (f42 (f43 f44 ?v2) (f51 (f52 f53 ?v3) ?v1)) f1)))))
(assert (forall ((?v0 S2) (?v1 S25) (?v2 S3)) (=> (= (f42 (f43 f44 ?v0) ?v1) f1) (= (f28 (f40 f41 (f3 ?v2 ?v0)) (f35 (f36 f37 ?v2) ?v1)) f1))))
(assert (forall ((?v0 S4) (?v1 S20) (?v2 S32)) (=> (= (f28 (f40 f41 ?v0) ?v1) f1) (= (f42 (f43 f44 (f50 ?v2 ?v0)) (f51 (f52 f53 ?v2) ?v1)) f1))))
(check-sat)
(exit)
